106489.08,43.54,47.69
106387.42,43.58,47.74
110092.46,42.12,46.13
104501.79,44.37,48.6
113030.08,41.02,44.93
103474.09,44.81,49.08
101756.88,45.57,49.91
111699.23,41.51,45.47
106393.17,43.58,47.74
110901.35,41.81,45.8
